NAME: ETSP
COMMENT: Generated by write_TSPLIB (R package TSP)
TYPE: TSP
DIMENSION: 300
EDGE_WEIGHT_TYPE: EUC_2D
NODE_COORD_SECTION
1 0.000000e+00 0.000000e+00
2 1.000000e+01 0.000000e+00
3 2.000000e+01 0.000000e+00
4 3.000000e+01 0.000000e+00
5 4.000000e+01 0.000000e+00
6 5.000000e+01 0.000000e+00
7 6.000000e+01 0.000000e+00
8 7.000000e+01 0.000000e+00
9 8.000000e+01 0.000000e+00
10 9.000000e+01 0.000000e+00
11 1.000000e+02 0.000000e+00
12 1.100000e+02 0.000000e+00
13 1.200000e+02 0.000000e+00
14 1.300000e+02 0.000000e+00
15 1.400000e+02 0.000000e+00
16 0.000000e+00 1.000000e+01
17 1.000000e+01 1.000000e+01
18 2.000000e+01 1.000000e+01
19 3.000000e+01 1.000000e+01
20 4.000000e+01 1.000000e+01
21 5.000000e+01 1.000000e+01
22 6.000000e+01 1.000000e+01
23 7.000000e+01 1.000000e+01
24 8.000000e+01 1.000000e+01
25 9.000000e+01 1.000000e+01
26 1.000000e+02 1.000000e+01
27 1.100000e+02 1.000000e+01
28 1.200000e+02 1.000000e+01
29 1.300000e+02 1.000000e+01
30 1.400000e+02 1.000000e+01
31 0.000000e+00 2.000000e+01
32 1.000000e+01 2.000000e+01
33 2.000000e+01 2.000000e+01
34 3.000000e+01 2.000000e+01
35 4.000000e+01 2.000000e+01
36 5.000000e+01 2.000000e+01
37 6.000000e+01 2.000000e+01
38 7.000000e+01 2.000000e+01
39 8.000000e+01 2.000000e+01
40 9.000000e+01 2.000000e+01
41 1.000000e+02 2.000000e+01
42 1.100000e+02 2.000000e+01
43 1.200000e+02 2.000000e+01
44 1.300000e+02 2.000000e+01
45 1.400000e+02 2.000000e+01
46 0.000000e+00 3.000000e+01
47 1.000000e+01 3.000000e+01
48 2.000000e+01 3.000000e+01
49 3.000000e+01 3.000000e+01
50 4.000000e+01 3.000000e+01
51 5.000000e+01 3.000000e+01
52 6.000000e+01 3.000000e+01
53 7.000000e+01 3.000000e+01
54 8.000000e+01 3.000000e+01
55 9.000000e+01 3.000000e+01
56 1.000000e+02 3.000000e+01
57 1.100000e+02 3.000000e+01
58 1.200000e+02 3.000000e+01
59 1.300000e+02 3.000000e+01
60 1.400000e+02 3.000000e+01
61 0.000000e+00 4.000000e+01
62 1.000000e+01 4.000000e+01
63 2.000000e+01 4.000000e+01
64 3.000000e+01 4.000000e+01
65 4.000000e+01 4.000000e+01
66 5.000000e+01 4.000000e+01
67 6.000000e+01 4.000000e+01
68 7.000000e+01 4.000000e+01
69 8.000000e+01 4.000000e+01
70 9.000000e+01 4.000000e+01
71 1.000000e+02 4.000000e+01
72 1.100000e+02 4.000000e+01
73 1.200000e+02 4.000000e+01
74 1.300000e+02 4.000000e+01
75 1.400000e+02 4.000000e+01
76 0.000000e+00 5.000000e+01
77 1.000000e+01 5.000000e+01
78 2.000000e+01 5.000000e+01
79 3.000000e+01 5.000000e+01
80 4.000000e+01 5.000000e+01
81 5.000000e+01 5.000000e+01
82 6.000000e+01 5.000000e+01
83 7.000000e+01 5.000000e+01
84 8.000000e+01 5.000000e+01
85 9.000000e+01 5.000000e+01
86 1.000000e+02 5.000000e+01
87 1.100000e+02 5.000000e+01
88 1.200000e+02 5.000000e+01
89 1.300000e+02 5.000000e+01
90 1.400000e+02 5.000000e+01
91 0.000000e+00 6.000000e+01
92 1.000000e+01 6.000000e+01
93 2.000000e+01 6.000000e+01
94 3.000000e+01 6.000000e+01
95 4.000000e+01 6.000000e+01
96 5.000000e+01 6.000000e+01
97 6.000000e+01 6.000000e+01
98 7.000000e+01 6.000000e+01
99 8.000000e+01 6.000000e+01
100 9.000000e+01 6.000000e+01
101 1.000000e+02 6.000000e+01
102 1.100000e+02 6.000000e+01
103 1.200000e+02 6.000000e+01
104 1.300000e+02 6.000000e+01
105 1.400000e+02 6.000000e+01
106 0.000000e+00 7.000000e+01
107 1.000000e+01 7.000000e+01
108 2.000000e+01 7.000000e+01
109 3.000000e+01 7.000000e+01
110 4.000000e+01 7.000000e+01
111 5.000000e+01 7.000000e+01
112 6.000000e+01 7.000000e+01
113 7.000000e+01 7.000000e+01
114 8.000000e+01 7.000000e+01
115 9.000000e+01 7.000000e+01
116 1.000000e+02 7.000000e+01
117 1.100000e+02 7.000000e+01
118 1.200000e+02 7.000000e+01
119 1.300000e+02 7.000000e+01
120 1.400000e+02 7.000000e+01
121 0.000000e+00 8.000000e+01
122 1.000000e+01 8.000000e+01
123 2.000000e+01 8.000000e+01
124 3.000000e+01 8.000000e+01
125 4.000000e+01 8.000000e+01
126 5.000000e+01 8.000000e+01
127 6.000000e+01 8.000000e+01
128 7.000000e+01 8.000000e+01
129 8.000000e+01 8.000000e+01
130 9.000000e+01 8.000000e+01
131 1.000000e+02 8.000000e+01
132 1.100000e+02 8.000000e+01
133 1.200000e+02 8.000000e+01
134 1.300000e+02 8.000000e+01
135 1.400000e+02 8.000000e+01
136 0.000000e+00 9.000000e+01
137 1.000000e+01 9.000000e+01
138 2.000000e+01 9.000000e+01
139 3.000000e+01 9.000000e+01
140 4.000000e+01 9.000000e+01
141 5.000000e+01 9.000000e+01
142 6.000000e+01 9.000000e+01
143 7.000000e+01 9.000000e+01
144 8.000000e+01 9.000000e+01
145 9.000000e+01 9.000000e+01
146 1.000000e+02 9.000000e+01
147 1.100000e+02 9.000000e+01
148 1.200000e+02 9.000000e+01
149 1.300000e+02 9.000000e+01
150 1.400000e+02 9.000000e+01
151 0.000000e+00 1.000000e+02
152 1.000000e+01 1.000000e+02
153 2.000000e+01 1.000000e+02
154 3.000000e+01 1.000000e+02
155 4.000000e+01 1.000000e+02
156 5.000000e+01 1.000000e+02
157 6.000000e+01 1.000000e+02
158 7.000000e+01 1.000000e+02
159 8.000000e+01 1.000000e+02
160 9.000000e+01 1.000000e+02
161 1.000000e+02 1.000000e+02
162 1.100000e+02 1.000000e+02
163 1.200000e+02 1.000000e+02
164 1.300000e+02 1.000000e+02
165 1.400000e+02 1.000000e+02
166 0.000000e+00 1.100000e+02
167 1.000000e+01 1.100000e+02
168 2.000000e+01 1.100000e+02
169 3.000000e+01 1.100000e+02
170 4.000000e+01 1.100000e+02
171 5.000000e+01 1.100000e+02
172 6.000000e+01 1.100000e+02
173 7.000000e+01 1.100000e+02
174 8.000000e+01 1.100000e+02
175 9.000000e+01 1.100000e+02
176 1.000000e+02 1.100000e+02
177 1.100000e+02 1.100000e+02
178 1.200000e+02 1.100000e+02
179 1.300000e+02 1.100000e+02
180 1.400000e+02 1.100000e+02
181 0.000000e+00 1.200000e+02
182 1.000000e+01 1.200000e+02
183 2.000000e+01 1.200000e+02
184 3.000000e+01 1.200000e+02
185 4.000000e+01 1.200000e+02
186 5.000000e+01 1.200000e+02
187 6.000000e+01 1.200000e+02
188 7.000000e+01 1.200000e+02
189 8.000000e+01 1.200000e+02
190 9.000000e+01 1.200000e+02
191 1.000000e+02 1.200000e+02
192 1.100000e+02 1.200000e+02
193 1.200000e+02 1.200000e+02
194 1.300000e+02 1.200000e+02
195 1.400000e+02 1.200000e+02
196 0.000000e+00 1.300000e+02
197 1.000000e+01 1.300000e+02
198 2.000000e+01 1.300000e+02
199 3.000000e+01 1.300000e+02
200 4.000000e+01 1.300000e+02
201 5.000000e+01 1.300000e+02
202 6.000000e+01 1.300000e+02
203 7.000000e+01 1.300000e+02
204 8.000000e+01 1.300000e+02
205 9.000000e+01 1.300000e+02
206 1.000000e+02 1.300000e+02
207 1.100000e+02 1.300000e+02
208 1.200000e+02 1.300000e+02
209 1.300000e+02 1.300000e+02
210 1.400000e+02 1.300000e+02
211 0.000000e+00 1.400000e+02
212 1.000000e+01 1.400000e+02
213 2.000000e+01 1.400000e+02
214 3.000000e+01 1.400000e+02
215 4.000000e+01 1.400000e+02
216 5.000000e+01 1.400000e+02
217 6.000000e+01 1.400000e+02
218 7.000000e+01 1.400000e+02
219 8.000000e+01 1.400000e+02
220 9.000000e+01 1.400000e+02
221 1.000000e+02 1.400000e+02
222 1.100000e+02 1.400000e+02
223 1.200000e+02 1.400000e+02
224 1.300000e+02 1.400000e+02
225 1.400000e+02 1.400000e+02
226 0.000000e+00 1.500000e+02
227 1.000000e+01 1.500000e+02
228 2.000000e+01 1.500000e+02
229 3.000000e+01 1.500000e+02
230 4.000000e+01 1.500000e+02
231 5.000000e+01 1.500000e+02
232 6.000000e+01 1.500000e+02
233 7.000000e+01 1.500000e+02
234 8.000000e+01 1.500000e+02
235 9.000000e+01 1.500000e+02
236 1.000000e+02 1.500000e+02
237 1.100000e+02 1.500000e+02
238 1.200000e+02 1.500000e+02
239 1.300000e+02 1.500000e+02
240 1.400000e+02 1.500000e+02
241 0.000000e+00 1.600000e+02
242 1.000000e+01 1.600000e+02
243 2.000000e+01 1.600000e+02
244 3.000000e+01 1.600000e+02
245 4.000000e+01 1.600000e+02
246 5.000000e+01 1.600000e+02
247 6.000000e+01 1.600000e+02
248 7.000000e+01 1.600000e+02
249 8.000000e+01 1.600000e+02
250 9.000000e+01 1.600000e+02
251 1.000000e+02 1.600000e+02
252 1.100000e+02 1.600000e+02
253 1.200000e+02 1.600000e+02
254 1.300000e+02 1.600000e+02
255 1.400000e+02 1.600000e+02
256 0.000000e+00 1.700000e+02
257 1.000000e+01 1.700000e+02
258 2.000000e+01 1.700000e+02
259 3.000000e+01 1.700000e+02
260 4.000000e+01 1.700000e+02
261 5.000000e+01 1.700000e+02
262 6.000000e+01 1.700000e+02
263 7.000000e+01 1.700000e+02
264 8.000000e+01 1.700000e+02
265 9.000000e+01 1.700000e+02
266 1.000000e+02 1.700000e+02
267 1.100000e+02 1.700000e+02
268 1.200000e+02 1.700000e+02
269 1.300000e+02 1.700000e+02
270 1.400000e+02 1.700000e+02
271 0.000000e+00 1.800000e+02
272 1.000000e+01 1.800000e+02
273 2.000000e+01 1.800000e+02
274 3.000000e+01 1.800000e+02
275 4.000000e+01 1.800000e+02
276 5.000000e+01 1.800000e+02
277 6.000000e+01 1.800000e+02
278 7.000000e+01 1.800000e+02
279 8.000000e+01 1.800000e+02
280 9.000000e+01 1.800000e+02
281 1.000000e+02 1.800000e+02
282 1.100000e+02 1.800000e+02
283 1.200000e+02 1.800000e+02
284 1.300000e+02 1.800000e+02
285 1.400000e+02 1.800000e+02
286 0.000000e+00 1.900000e+02
287 1.000000e+01 1.900000e+02
288 2.000000e+01 1.900000e+02
289 3.000000e+01 1.900000e+02
290 4.000000e+01 1.900000e+02
291 5.000000e+01 1.900000e+02
292 6.000000e+01 1.900000e+02
293 7.000000e+01 1.900000e+02
294 8.000000e+01 1.900000e+02
295 9.000000e+01 1.900000e+02
296 1.000000e+02 1.900000e+02
297 1.100000e+02 1.900000e+02
298 1.200000e+02 1.900000e+02
299 1.300000e+02 1.900000e+02
300 1.400000e+02 1.900000e+02
EOF
